c
c This is glucose 2.1 --  based on MiniSAT (Many thanks to MiniSAT team)
c
c WARNING: for repeatability, setting FPU to use double precision
c ========================================[ Problem Statistics ]===========================================
c |                                                                                                       |
c |  Number of variables:        327522                                                                   |
c |  Number of clauses:          789458                                                                   |
c |  Parse time:                   0.26 s                                                                 |
c |                                                                                                       |
c ========================================[ MAGIC CONSTANTS ]==============================================
c | Constants are supposed to work well together :-)                                                      |
c | however, if you find better choices, please let us known...                                           |
c |-------------------------------------------------------------------------------------------------------|
c |                                |                                |                                     |
c | - Restarts:                    | - Reduce Clause DB:            | - Minimize Asserting:               |
c |   * LBD Queue    :     50      |   * First     :   4000         |    * size <  30                     |
c |   * Trail  Queue :   5000      |   * Inc       :    300         |    * lbd  <   6                     |
c |   * K            :   0.80      |   * Special   :   1000         |                                     |
c |   * R            :   1.40      |   * Protected :  (lbd)< 30     |                                     |
c |                                |                                |                                     |
c ==================================[ Search Statistics (every  10000 conflicts) ]=========================
c |                                                                                                       |
c |          RESTARTS           |          ORIGINAL         |              LEARNT              | Progress |
c |       NB   Blocked  Avg Cfc |    Vars  Clauses Literals |   Red   Learnts    LBD2  Removed |          |
c =========================================================================================================
c |       38         0      263 |  184670   774182  1734234 |     1     7765      211     1997 | 43.616 % |
c =========================================================================================================
c restarts              : 40 (385 conflicts in avg)
c blocked restarts      : 0 (multiple: 0) 
c last block at restart : 0
c nb ReduceDB           : 2
c nb removed Clauses    : 6177
c nb learnts DL2        : 290
c nb learnts size 2     : 129
c nb learnts size 1     : 11
c conflicts             : 15434          (2107 /sec)
c decisions             : 33768          (0.00 % random) (4610 /sec)
c propagations          : 35562408       (4855296 /sec)
c conflict literals     : 755069         (40.41 % deleted)
c nb reduced Clauses    : 138
c CPU time              : 7.32446 s
s UNSATISFIABLE
